NAME: random-23-20699
TYPE: TSP
COMMENT: size=23 seed=20699
DIMENSION: 48
EDGE_WEIGHT_TYPE: EUC_2D
NODE_COORD_SECTION
+0 93 917
-0 93 917
+1 601 924
-1 725 725
+2 357 82
-2 674 438
+3 508 753
-3 331 889
+4 449 698
-4 568 987
+5 70 26
-5 14 170
+6 882 985
-6 960 177
+7 714 254
-7 29 302
+8 384 279
-8 498 749
+9 503 719
-9 810 265
+10 822 689
-10 881 193
+11 220 667
-11 494 745
+12 938 192
-12 44 411
+13 5 426
-13 840 948
+14 386 744
-14 577 506
+15 603 913
-15 909 635
+16 865 319
-16 247 126
+17 173 845
-17 794 422
+18 320 82
-18 280 375
+19 418 372
-19 61 157
+20 687 388
-20 455 449
+21 146 895
-21 762 691
+22 760 678
-22 990 997
+23 540 790
-23 603 664
PRECEDENCE_SECTION
+0 -0
+1 -1
+2 -2
+3 -3
+4 -4
+5 -5
+6 -6
+7 -7
+8 -8
+9 -9
+10 -10
+11 -11
+12 -12
+13 -13
+14 -14
+15 -15
+16 -16
+17 -17
+18 -18
+19 -19
+20 -20
+21 -21
+22 -22
+23 -23
EOF
